NAME: kroD100
COMMENT: Quick (5min) local search tour for kroD100 (25003.718715461768)
TYPE: TOUR
DIMENSION: 100
TOUR_SECTION: 1 50 90 17 94 32 97 98 49 70 89 11 23 42 22 58 29 36 67 75 7 74 61 46 52 8 66 38 34 81 27 24 41 84 69 76 80 57 72 78 31 99 45 33 68 14 65 86 12 28 95 56 21 47 82 85 18 25 20 9 10 26 87 55 92 48 2 30 100 19 37 51 35 62 53 60 93 44 4 71 43 5 3 83 40 6 59 64 16 96 15 63 54 91 77 39 73 13 79 88 -1
EOF